# Solution for model MIP
# Objective value = -1.2334596300550606e+03
team_t0_s0 1
team_t1_s0 1
team_t2_s0 1
team_t3_s0 1
team_t4_s0 1
team_t5_s0 1
team_t6_s0 1
team_t0_s1 1
team_t1_s1 1
team_t2_s1 1
team_t3_s1 1
team_t4_s1 1
team_t5_s1 1
team_t6_s1 1
theta -1.1350667130640588e+03
z_w0_k0_m0 5.4923519509738772e-01
z_w0_k0_m1 2.8418140110588730e-01
z_w0_k0_m2 2.8205773999743278e-01
z_w0_k1_m0 5.9281481027281613e-01
z_w0_k1_m1 3.0788615057069585e-01
z_w0_k1_m2 3.0788615057069590e-01
z_w0_k2_m0 3.4966070633662683e-01
z_w0_k2_m1 9.5568909433314109e-01
z_w0_k2_m2 1.0347653805329171e-01
z_w0_k3_m0 3.1819619669048677e-01
z_w0_k3_m1 2.1315297577733344e-01
z_w0_k3_m2 1.3944904240784017e-01
z_w0_k4_m0 7.6444534638986139e-01
z_w0_k4_m1 4.0881942027913581e-01
z_w0_k4_m2 4.0881942027913598e-01
z_w0_k5_m0 3.4966070633662683e-01
z_w0_k5_m1 9.5568909433314109e-01
z_w0_k5_m2 1.0347653805329171e-01
z_w0_k6_m0 3.4966070633662683e-01
z_w0_k6_m1 9.5568909433314109e-01
z_w0_k6_m2 1.0347653805329171e-01
z_w0_k7_m0 3.4966070633662683e-01
z_w0_k7_m1 9.5568909433314109e-01
z_w0_k7_m2 1.0347653805329171e-01
z_w0_k8_m0 1.4957654434465381e-01
z_w0_k8_m1 1.2282101393323609e-01
z_w0_k8_m2 5.4379086450276046e-02
z_w0_k9_m0 3.4966070633662683e-01
z_w0_k9_m1 9.5568909433314109e-01
z_w0_k9_m2 1.0347653805329171e-01
z_w1_k0_m0 3.4966070633662683e-01
z_w1_k0_m1 9.5568909433314109e-01
z_w1_k0_m2 1.0347653805329171e-01
z_w1_k1_m0 3.4966070633662683e-01
z_w1_k1_m1 9.5568909433314109e-01
z_w1_k1_m2 1.0347653805329171e-01
z_w1_k2_m0 3.4966070633662683e-01
z_w1_k2_m1 9.5568909433314109e-01
z_w1_k2_m2 1.0347653805329171e-01
z_w1_k3_m0 3.4966070633662683e-01
z_w1_k3_m1 9.5568909433314109e-01
z_w1_k3_m2 1.0347653805329171e-01
z_w1_k4_m0 3.4966070633662683e-01
z_w1_k4_m1 9.5568909433314109e-01
z_w1_k4_m2 1.0347653805329171e-01
z_w1_k5_m0 5.1762601334469649e-01
z_w1_k5_m1 2.1066292554655158e-01
z_w1_k5_m2 2.5209518477133042e-01
z_w1_k6_m0 4.8339442299552160e-01
z_w1_k6_m1 2.0065724432108523e-01
z_w1_k6_m2 2.3425324538961131e-01
z_w1_k7_m0 0
z_w1_k7_m1 0
z_w1_k7_m2 0
z_w1_k8_m0 3.4966070633662683e-01
z_w1_k8_m1 9.5568909433314109e-01
z_w1_k8_m2 1.0347653805329171e-01
z_w1_k9_m0 3.4966070633662683e-01
z_w1_k9_m1 9.5568909433314109e-01
z_w1_k9_m2 1.0347653805329171e-01
z_w2_k0_m0 3.4966070633662683e-01
z_w2_k0_m1 9.5568909433314109e-01
z_w2_k0_m2 1.0347653805329171e-01
z_w2_k1_m0 3.4966070633662683e-01
z_w2_k1_m1 9.5568909433314109e-01
z_w2_k1_m2 1.0347653805329171e-01
z_w2_k2_m0 5.3399775982141262e-01
z_w2_k2_m1 1.5608422820516077e-01
z_w2_k2_m2 2.7832641029887401e-01
z_w2_k3_m0 3.4966070633662683e-01
z_w2_k3_m1 9.5568909433314109e-01
z_w2_k3_m2 1.0347653805329171e-01
z_w2_k4_m0 3.4966070633662683e-01
z_w2_k4_m1 9.5568909433314109e-01
z_w2_k4_m2 1.0347653805329171e-01
z_w2_k5_m0 3.4966070633662683e-01
z_w2_k5_m1 9.5568909433314109e-01
z_w2_k5_m2 1.0347653805329171e-01
z_w2_k6_m0 3.4966070633662683e-01
z_w2_k6_m1 9.5568909433314109e-01
z_w2_k6_m2 1.0347653805329171e-01
z_w2_k7_m0 3.4966070633662683e-01
z_w2_k7_m1 9.5568909433314109e-01
z_w2_k7_m2 1.0347653805329171e-01
z_w2_k8_m0 3.4966070633662683e-01
z_w2_k8_m1 9.5568909433314109e-01
z_w2_k8_m2 1.0347653805329171e-01
z_w2_k9_m0 3.0209273126638098e-01
z_w2_k9_m1 8.8299828864209770e-02
z_w2_k9_m2 1.5745456591217469e-01
pi_w0_t0_k0 0
pi_w0_t0_k1 0
pi_w0_t0_k2 1
pi_w0_t0_k3 0
pi_w0_t0_k4 0
pi_w0_t0_k5 1
pi_w0_t0_k6 1
pi_w0_t0_k7 1
pi_w0_t0_k8 0
pi_w0_t0_k9 1
pi_w0_t1_k0 0
pi_w0_t1_k1 0
pi_w0_t1_k2 0
pi_w0_t1_k3 0
pi_w0_t1_k4 0
pi_w0_t1_k5 0
pi_w0_t1_k6 0
pi_w0_t1_k7 0
pi_w0_t1_k8 0
pi_w0_t1_k9 0
pi_w0_t2_k0 5.6704599743545203e-01
pi_w0_t2_k1 4.9948842453131681e-01
pi_w0_t2_k2 0
pi_w0_t2_k3 8.7508926273453325e-01
pi_w0_t2_k4 2.2647636842408400e-01
pi_w0_t2_k5 0
pi_w0_t2_k6 0
pi_w0_t2_k7 0
pi_w0_t2_k8 6.6623410648364823e-01
pi_w0_t2_k9 0
pi_w0_t3_k0 0
pi_w0_t3_k1 0
pi_w0_t3_k2 0
pi_w0_t3_k3 0
pi_w0_t3_k4 0
pi_w0_t3_k5 0
pi_w0_t3_k6 0
pi_w0_t3_k7 0
pi_w0_t3_k8 0
pi_w0_t3_k9 0
pi_w0_t4_k0 0
pi_w0_t4_k1 1.4805905067657821e-02
pi_w0_t4_k2 0
pi_w0_t4_k3 0
pi_w0_t4_k4 8.3999614047865573e-02
pi_w0_t4_k5 0
pi_w0_t4_k6 0
pi_w0_t4_k7 0
pi_w0_t4_k8 0
pi_w0_t4_k9 0
pi_w0_t5_k0 4.3295400256454802e-01
pi_w0_t5_k1 4.8570567040102541e-01
pi_w0_t5_k2 0
pi_w0_t5_k3 1.2491073726546680e-01
pi_w0_t5_k4 6.8952401752805037e-01
pi_w0_t5_k5 0
pi_w0_t5_k6 0
pi_w0_t5_k7 0
pi_w0_t5_k8 0
pi_w0_t5_k9 0
pi_w0_t6_k0 0
pi_w0_t6_k1 0
pi_w0_t6_k2 0
pi_w0_t6_k3 0
pi_w0_t6_k4 2.3220350841833340e-17
pi_w0_t6_k5 0
pi_w0_t6_k6 0
pi_w0_t6_k7 0
pi_w0_t6_k8 3.3376589351635177e-01
pi_w0_t6_k9 0
pi_w1_t0_k0 1
pi_w1_t0_k1 1
pi_w1_t0_k2 1
pi_w1_t0_k3 1
pi_w1_t0_k4 1
pi_w1_t0_k5 0
pi_w1_t0_k6 0
pi_w1_t0_k7 0
pi_w1_t0_k8 1
pi_w1_t0_k9 1
pi_w1_t1_k0 0
pi_w1_t1_k1 0
pi_w1_t1_k2 0
pi_w1_t1_k3 0
pi_w1_t1_k4 0
pi_w1_t1_k5 4.1913582494740070e-01
pi_w1_t1_k6 3.8374184258697303e-01
pi_w1_t1_k7 0
pi_w1_t1_k8 0
pi_w1_t1_k9 0
pi_w1_t2_k0 0
pi_w1_t2_k1 0
pi_w1_t2_k2 0
pi_w1_t2_k3 0
pi_w1_t2_k4 0
pi_w1_t2_k5 0.5
pi_w1_t2_k6 0.5
pi_w1_t2_k7 0
pi_w1_t2_k8 0
pi_w1_t2_k9 0
pi_w1_t3_k0 0
pi_w1_t3_k1 0
pi_w1_t3_k2 0
pi_w1_t3_k3 0
pi_w1_t3_k4 0
pi_w1_t3_k5 0
pi_w1_t3_k6 0
pi_w1_t3_k7 0
pi_w1_t3_k8 0
pi_w1_t3_k9 0
pi_w1_t4_k0 0
pi_w1_t4_k1 0
pi_w1_t4_k2 0
pi_w1_t4_k3 0
pi_w1_t4_k4 0
pi_w1_t4_k5 0
pi_w1_t4_k6 0
pi_w1_t4_k7 0
pi_w1_t4_k8 0
pi_w1_t4_k9 0
pi_w1_t5_k0 0
pi_w1_t5_k1 0
pi_w1_t5_k2 0
pi_w1_t5_k3 0
pi_w1_t5_k4 0
pi_w1_t5_k5 0
pi_w1_t5_k6 0
pi_w1_t5_k7 0
pi_w1_t5_k8 0
pi_w1_t5_k9 0
pi_w1_t6_k0 0
pi_w1_t6_k1 0
pi_w1_t6_k2 0
pi_w1_t6_k3 0
pi_w1_t6_k4 0
pi_w1_t6_k5 8.0864175052599269e-02
pi_w1_t6_k6 1.1625815741302693e-01
pi_w1_t6_k7 1
pi_w1_t6_k8 0
pi_w1_t6_k9 0
pi_w2_t0_k0 1
pi_w2_t0_k1 1
pi_w2_t0_k2 0
pi_w2_t0_k3 1
pi_w2_t0_k4 1
pi_w2_t0_k5 1
pi_w2_t0_k6 1
pi_w2_t0_k7 1
pi_w2_t0_k8 1
pi_w2_t0_k9 0
pi_w2_t1_k0 0
pi_w2_t1_k1 0
pi_w2_t1_k2 5.5213056416125672e-01
pi_w2_t1_k3 0
pi_w2_t1_k4 0
pi_w2_t1_k5 0
pi_w2_t1_k6 0
pi_w2_t1_k7 0
pi_w2_t1_k8 0
pi_w2_t1_k9 3.1235080499008794e-01
pi_w2_t2_k0 0
pi_w2_t2_k1 0
pi_w2_t2_k2 0
pi_w2_t2_k3 0
pi_w2_t2_k4 0
pi_w2_t2_k5 0
pi_w2_t2_k6 0
pi_w2_t2_k7 0
pi_w2_t2_k8 0
pi_w2_t2_k9 0
pi_w2_t3_k0 0
pi_w2_t3_k1 0
pi_w2_t3_k2 0
pi_w2_t3_k3 0
pi_w2_t3_k4 0
pi_w2_t3_k5 0
pi_w2_t3_k6 0
pi_w2_t3_k7 0
pi_w2_t3_k8 0
pi_w2_t3_k9 0
pi_w2_t4_k0 0
pi_w2_t4_k1 0
pi_w2_t4_k2 0
pi_w2_t4_k3 0
pi_w2_t4_k4 0
pi_w2_t4_k5 0
pi_w2_t4_k6 0
pi_w2_t4_k7 0
pi_w2_t4_k8 0
pi_w2_t4_k9 0
pi_w2_t5_k0 0
pi_w2_t5_k1 0
pi_w2_t5_k2 0
pi_w2_t5_k3 0
pi_w2_t5_k4 0
pi_w2_t5_k5 0
pi_w2_t5_k6 0
pi_w2_t5_k7 0
pi_w2_t5_k8 0
pi_w2_t5_k9 0
pi_w2_t6_k0 0
pi_w2_t6_k1 0
pi_w2_t6_k2 4.4786943583874328e-01
pi_w2_t6_k3 0
pi_w2_t6_k4 0
pi_w2_t6_k5 0
pi_w2_t6_k6 0
pi_w2_t6_k7 0
pi_w2_t6_k8 0
pi_w2_t6_k9 6.8764919500991206e-01
n_w0_t0_k0 0
n_w0_t0_k1 0
n_w0_t0_k2 0
n_w0_t0_k3 0
n_w0_t0_k4 0
n_w0_t0_k5 0
n_w0_t0_k6 0
n_w0_t0_k7 0
n_w0_t0_k8 0
n_w0_t0_k9 0
n_w0_t1_k0 0
n_w0_t1_k1 0
n_w0_t1_k2 0
n_w0_t1_k3 0
n_w0_t1_k4 0
n_w0_t1_k5 0
n_w0_t1_k6 0
n_w0_t1_k7 0
n_w0_t1_k8 0
n_w0_t1_k9 0
n_w0_t2_k0 1.4743195933321752e+01
n_w0_t2_k1 4.9948842453131679e+00
n_w0_t2_k2 0
n_w0_t2_k3 1.5226553171580878e+02
n_w0_t2_k4 3.4650884368884853e+01
n_w0_t2_k5 0
n_w0_t2_k6 0
n_w0_t2_k7 0
n_w0_t2_k8 1.6655852662091206e+01
n_w0_t2_k9 0
n_w0_t3_k0 0
n_w0_t3_k1 0
n_w0_t3_k2 0
n_w0_t3_k3 0
n_w0_t3_k4 0
n_w0_t3_k5 0
n_w0_t3_k6 0
n_w0_t3_k7 0
n_w0_t3_k8 0
n_w0_t3_k9 0
n_w0_t4_k0 0
n_w0_t4_k1 1.4805905067657821e-01
n_w0_t4_k2 0
n_w0_t4_k3 0
n_w0_t4_k4 1.2851940949323433e+01
n_w0_t4_k5 0
n_w0_t4_k6 0
n_w0_t4_k7 0
n_w0_t4_k8 0
n_w0_t4_k9 0
n_w0_t5_k0 1.1256804066678249e+01
n_w0_t5_k1 4.8570567040102546e+00
n_w0_t5_k2 0
n_w0_t5_k3 2.1734468284191223e+01
n_w0_t5_k4 1.0549717468179171e+02
n_w0_t5_k5 0
n_w0_t5_k6 0
n_w0_t5_k7 0
n_w0_t5_k8 0
n_w0_t5_k9 0
n_w0_t6_k0 0
n_w0_t6_k1 0
n_w0_t6_k2 0
n_w0_t6_k3 0
n_w0_t6_k4 3.5527136788005009e-15
n_w0_t6_k5 0
n_w0_t6_k6 0
n_w0_t6_k7 0
n_w0_t6_k8 8.3441473379087938e+00
n_w0_t6_k9 0
n_w1_t0_k0 0
n_w1_t0_k1 0
n_w1_t0_k2 0
n_w1_t0_k3 0
n_w1_t0_k4 0
n_w1_t0_k5 0
n_w1_t0_k6 0
n_w1_t0_k7 0
n_w1_t0_k8 0
n_w1_t0_k9 0
n_w1_t1_k0 0
n_w1_t1_k1 0
n_w1_t1_k2 0
n_w1_t1_k3 0
n_w1_t1_k4 0
n_w1_t1_k5 7.2091361890952925e+01
n_w1_t1_k6 1.0361029749848271e+01
n_w1_t1_k7 0
n_w1_t1_k8 0
n_w1_t1_k9 0
n_w1_t2_k0 0
n_w1_t2_k1 0
n_w1_t2_k2 0
n_w1_t2_k3 0
n_w1_t2_k4 0
n_w1_t2_k5 86
n_w1_t2_k6 13.5
n_w1_t2_k7 0
n_w1_t2_k8 0
n_w1_t2_k9 0
n_w1_t3_k0 0
n_w1_t3_k1 0
n_w1_t3_k2 0
n_w1_t3_k3 0
n_w1_t3_k4 0
n_w1_t3_k5 0
n_w1_t3_k6 0
n_w1_t3_k7 0
n_w1_t3_k8 0
n_w1_t3_k9 0
n_w1_t4_k0 0
n_w1_t4_k1 0
n_w1_t4_k2 0
n_w1_t4_k3 0
n_w1_t4_k4 0
n_w1_t4_k5 0
n_w1_t4_k6 0
n_w1_t4_k7 0
n_w1_t4_k8 0
n_w1_t4_k9 0
n_w1_t5_k0 0
n_w1_t5_k1 0
n_w1_t5_k2 0
n_w1_t5_k3 0
n_w1_t5_k4 0
n_w1_t5_k5 0
n_w1_t5_k6 0
n_w1_t5_k7 0
n_w1_t5_k8 0
n_w1_t5_k9 0
n_w1_t6_k0 0
n_w1_t6_k1 0
n_w1_t6_k2 0
n_w1_t6_k3 0
n_w1_t6_k4 0
n_w1_t6_k5 1.3908638109047073e+01
n_w1_t6_k6 3.1389702501517274e+00
n_w1_t6_k7 13
n_w1_t6_k8 0
n_w1_t6_k9 0
n_w2_t0_k0 0
n_w2_t0_k1 0
n_w2_t0_k2 0
n_w2_t0_k3 0
n_w2_t0_k4 0
n_w2_t0_k5 0
n_w2_t0_k6 0
n_w2_t0_k7 0
n_w2_t0_k8 0
n_w2_t0_k9 0
n_w2_t1_k0 0
n_w2_t1_k1 0
n_w2_t1_k2 6.0734362057738238e+00
n_w2_t1_k3 0
n_w2_t1_k4 0
n_w2_t1_k5 0
n_w2_t1_k6 0
n_w2_t1_k7 0
n_w2_t1_k8 0
n_w2_t1_k9 5.3099636848314953e+00
n_w2_t2_k0 0
n_w2_t2_k1 0
n_w2_t2_k2 0
n_w2_t2_k3 0
n_w2_t2_k4 0
n_w2_t2_k5 0
n_w2_t2_k6 0
n_w2_t2_k7 0
n_w2_t2_k8 0
n_w2_t2_k9 0
n_w2_t3_k0 0
n_w2_t3_k1 0
n_w2_t3_k2 0
n_w2_t3_k3 0
n_w2_t3_k4 0
n_w2_t3_k5 0
n_w2_t3_k6 0
n_w2_t3_k7 0
n_w2_t3_k8 0
n_w2_t3_k9 0
n_w2_t4_k0 0
n_w2_t4_k1 0
n_w2_t4_k2 0
n_w2_t4_k3 0
n_w2_t4_k4 0
n_w2_t4_k5 0
n_w2_t4_k6 0
n_w2_t4_k7 0
n_w2_t4_k8 0
n_w2_t4_k9 0
n_w2_t5_k0 0
n_w2_t5_k1 0
n_w2_t5_k2 0
n_w2_t5_k3 0
n_w2_t5_k4 0
n_w2_t5_k5 0
n_w2_t5_k6 0
n_w2_t5_k7 0
n_w2_t5_k8 0
n_w2_t5_k9 0
n_w2_t6_k0 0
n_w2_t6_k1 0
n_w2_t6_k2 4.9265637942261762e+00
n_w2_t6_k3 0
n_w2_t6_k4 0
n_w2_t6_k5 0
n_w2_t6_k6 0
n_w2_t6_k7 0
n_w2_t6_k8 0
n_w2_t6_k9 1.1690036315168506e+01
ni_s0_w0_t0_k0 0
ni_s0_w0_t0_k1 0
ni_s0_w0_t0_k2 0
ni_s0_w0_t0_k3 0
ni_s0_w0_t0_k4 0
ni_s0_w0_t0_k5 0
ni_s0_w0_t0_k6 0
ni_s0_w0_t0_k7 0
ni_s0_w0_t0_k8 0
ni_s0_w0_t0_k9 0
ni_s0_w0_t1_k0 0
ni_s0_w0_t1_k1 0
ni_s0_w0_t1_k2 0
ni_s0_w0_t1_k3 0
ni_s0_w0_t1_k4 0
ni_s0_w0_t1_k5 0
ni_s0_w0_t1_k6 0
ni_s0_w0_t1_k7 0
ni_s0_w0_t1_k8 0
ni_s0_w0_t1_k9 0
ni_s0_w0_t2_k0 26
ni_s0_w0_t2_k1 9.7038818986468431e+00
ni_s0_w0_t2_k2 0
ni_s0_w0_t2_k3 174
ni_s0_w0_t2_k4 0
ni_s0_w0_t2_k5 0
ni_s0_w0_t2_k6 0
ni_s0_w0_t2_k7 0
ni_s0_w0_t2_k8 1.6655852662091206e+01
ni_s0_w0_t2_k9 0
ni_s0_w0_t3_k0 0
ni_s0_w0_t3_k1 0
ni_s0_w0_t3_k2 0
ni_s0_w0_t3_k3 0
ni_s0_w0_t3_k4 0
ni_s0_w0_t3_k5 0
ni_s0_w0_t3_k6 0
ni_s0_w0_t3_k7 0
ni_s0_w0_t3_k8 0
ni_s0_w0_t3_k9 0
ni_s0_w0_t4_k0 0
ni_s0_w0_t4_k1 2.9611810135315642e-01
ni_s0_w0_t4_k2 0
ni_s0_w0_t4_k3 0
ni_s0_w0_t4_k4 2.5703881898646863e+01
ni_s0_w0_t4_k5 0
ni_s0_w0_t4_k6 0
ni_s0_w0_t4_k7 0
ni_s0_w0_t4_k8 0
ni_s0_w0_t4_k9 0
ni_s0_w0_t5_k0 0
ni_s0_w0_t5_k1 0
ni_s0_w0_t5_k2 0
ni_s0_w0_t5_k3 0
ni_s0_w0_t5_k4 1.2729611810135313e+02
ni_s0_w0_t5_k5 0
ni_s0_w0_t5_k6 0
ni_s0_w0_t5_k7 0
ni_s0_w0_t5_k8 0
ni_s0_w0_t5_k9 0
ni_s0_w0_t6_k0 0
ni_s0_w0_t6_k1 0
ni_s0_w0_t6_k2 0
ni_s0_w0_t6_k3 0
ni_s0_w0_t6_k4 7.1054273576010019e-15
ni_s0_w0_t6_k5 0
ni_s0_w0_t6_k6 0
ni_s0_w0_t6_k7 0
ni_s0_w0_t6_k8 8.3441473379087938e+00
ni_s0_w0_t6_k9 0
ni_s0_w1_t0_k0 0
ni_s0_w1_t0_k1 0
ni_s0_w1_t0_k2 0
ni_s0_w1_t0_k3 0
ni_s0_w1_t0_k4 0
ni_s0_w1_t0_k5 0
ni_s0_w1_t0_k6 0
ni_s0_w1_t0_k7 0
ni_s0_w1_t0_k8 0
ni_s0_w1_t0_k9 0
ni_s0_w1_t1_k0 0
ni_s0_w1_t1_k1 0
ni_s0_w1_t1_k2 0
ni_s0_w1_t1_k3 0
ni_s0_w1_t1_k4 0
ni_s0_w1_t1_k5 1.4418272378190585e+02
ni_s0_w1_t1_k6 2.0722059499696545e+01
ni_s0_w1_t1_k7 0
ni_s0_w1_t1_k8 0
ni_s0_w1_t1_k9 0
ni_s0_w1_t2_k0 0
ni_s0_w1_t2_k1 0
ni_s0_w1_t2_k2 0
ni_s0_w1_t2_k3 0
ni_s0_w1_t2_k4 0
ni_s0_w1_t2_k5 0
ni_s0_w1_t2_k6 0
ni_s0_w1_t2_k7 0
ni_s0_w1_t2_k8 0
ni_s0_w1_t2_k9 0
ni_s0_w1_t3_k0 0
ni_s0_w1_t3_k1 0
ni_s0_w1_t3_k2 0
ni_s0_w1_t3_k3 0
ni_s0_w1_t3_k4 0
ni_s0_w1_t3_k5 0
ni_s0_w1_t3_k6 0
ni_s0_w1_t3_k7 0
ni_s0_w1_t3_k8 0
ni_s0_w1_t3_k9 0
ni_s0_w1_t4_k0 0
ni_s0_w1_t4_k1 0
ni_s0_w1_t4_k2 0
ni_s0_w1_t4_k3 0
ni_s0_w1_t4_k4 0
ni_s0_w1_t4_k5 0
ni_s0_w1_t4_k6 0
ni_s0_w1_t4_k7 0
ni_s0_w1_t4_k8 0
ni_s0_w1_t4_k9 0
ni_s0_w1_t5_k0 0
ni_s0_w1_t5_k1 0
ni_s0_w1_t5_k2 0
ni_s0_w1_t5_k3 0
ni_s0_w1_t5_k4 0
ni_s0_w1_t5_k5 0
ni_s0_w1_t5_k6 0
ni_s0_w1_t5_k7 0
ni_s0_w1_t5_k8 0
ni_s0_w1_t5_k9 0
ni_s0_w1_t6_k0 0
ni_s0_w1_t6_k1 0
ni_s0_w1_t6_k2 0
ni_s0_w1_t6_k3 0
ni_s0_w1_t6_k4 0
ni_s0_w1_t6_k5 2.7817276218094150e+01
ni_s0_w1_t6_k6 6.2779405003034547e+00
ni_s0_w1_t6_k7 13
ni_s0_w1_t6_k8 0
ni_s0_w1_t6_k9 0
ni_s0_w2_t0_k0 0
ni_s0_w2_t0_k1 0
ni_s0_w2_t0_k2 0
ni_s0_w2_t0_k3 0
ni_s0_w2_t0_k4 0
ni_s0_w2_t0_k5 0
ni_s0_w2_t0_k6 0
ni_s0_w2_t0_k7 0
ni_s0_w2_t0_k8 0
ni_s0_w2_t0_k9 0
ni_s0_w2_t1_k0 0
ni_s0_w2_t1_k1 0
ni_s0_w2_t1_k2 11
ni_s0_w2_t1_k3 0
ni_s0_w2_t1_k4 0
ni_s0_w2_t1_k5 0
ni_s0_w2_t1_k6 0
ni_s0_w2_t1_k7 0
ni_s0_w2_t1_k8 0
ni_s0_w2_t1_k9 0
ni_s0_w2_t2_k0 0
ni_s0_w2_t2_k1 0
ni_s0_w2_t2_k2 0
ni_s0_w2_t2_k3 0
ni_s0_w2_t2_k4 0
ni_s0_w2_t2_k5 0
ni_s0_w2_t2_k6 0
ni_s0_w2_t2_k7 0
ni_s0_w2_t2_k8 0
ni_s0_w2_t2_k9 0
ni_s0_w2_t3_k0 0
ni_s0_w2_t3_k1 0
ni_s0_w2_t3_k2 0
ni_s0_w2_t3_k3 0
ni_s0_w2_t3_k4 0
ni_s0_w2_t3_k5 0
ni_s0_w2_t3_k6 0
ni_s0_w2_t3_k7 0
ni_s0_w2_t3_k8 0
ni_s0_w2_t3_k9 0
ni_s0_w2_t4_k0 0
ni_s0_w2_t4_k1 0
ni_s0_w2_t4_k2 0
ni_s0_w2_t4_k3 0
ni_s0_w2_t4_k4 0
ni_s0_w2_t4_k5 0
ni_s0_w2_t4_k6 0
ni_s0_w2_t4_k7 0
ni_s0_w2_t4_k8 0
ni_s0_w2_t4_k9 0
ni_s0_w2_t5_k0 0
ni_s0_w2_t5_k1 0
ni_s0_w2_t5_k2 0
ni_s0_w2_t5_k3 0
ni_s0_w2_t5_k4 0
ni_s0_w2_t5_k5 0
ni_s0_w2_t5_k6 0
ni_s0_w2_t5_k7 0
ni_s0_w2_t5_k8 0
ni_s0_w2_t5_k9 0
ni_s0_w2_t6_k0 0
ni_s0_w2_t6_k1 0
ni_s0_w2_t6_k2 0
ni_s0_w2_t6_k3 0
ni_s0_w2_t6_k4 0
ni_s0_w2_t6_k5 0
ni_s0_w2_t6_k6 0
ni_s0_w2_t6_k7 0
ni_s0_w2_t6_k8 0
ni_s0_w2_t6_k9 17
ni_s1_w0_t0_k0 0
ni_s1_w0_t0_k1 0
ni_s1_w0_t0_k2 0
ni_s1_w0_t0_k3 0
ni_s1_w0_t0_k4 0
ni_s1_w0_t0_k5 0
ni_s1_w0_t0_k6 0
ni_s1_w0_t0_k7 0
ni_s1_w0_t0_k8 0
ni_s1_w0_t0_k9 0
ni_s1_w0_t1_k0 0
ni_s1_w0_t1_k1 0
ni_s1_w0_t1_k2 0
ni_s1_w0_t1_k3 0
ni_s1_w0_t1_k4 0
ni_s1_w0_t1_k5 0
ni_s1_w0_t1_k6 0
ni_s1_w0_t1_k7 0
ni_s1_w0_t1_k8 0
ni_s1_w0_t1_k9 0
ni_s1_w0_t2_k0 3.4863918666435056e+00
ni_s1_w0_t2_k1 2.8588659197949262e-01
ni_s1_w0_t2_k2 0
ni_s1_w0_t2_k3 1.3053106343161755e+02
ni_s1_w0_t2_k4 6.9301768737769706e+01
ni_s1_w0_t2_k5 0
ni_s1_w0_t2_k6 0
ni_s1_w0_t2_k7 0
ni_s1_w0_t2_k8 1.6655852662091206e+01
ni_s1_w0_t2_k9 0
ni_s1_w0_t3_k0 0
ni_s1_w0_t3_k1 0
ni_s1_w0_t3_k2 0
ni_s1_w0_t3_k3 0
ni_s1_w0_t3_k4 0
ni_s1_w0_t3_k5 0
ni_s1_w0_t3_k6 0
ni_s1_w0_t3_k7 0
ni_s1_w0_t3_k8 0
ni_s1_w0_t3_k9 0
ni_s1_w0_t4_k0 0
ni_s1_w0_t4_k1 0
ni_s1_w0_t4_k2 0
ni_s1_w0_t4_k3 0
ni_s1_w0_t4_k4 0
ni_s1_w0_t4_k5 0
ni_s1_w0_t4_k6 0
ni_s1_w0_t4_k7 0
ni_s1_w0_t4_k8 0
ni_s1_w0_t4_k9 0
ni_s1_w0_t5_k0 2.2513608133356495e+01
ni_s1_w0_t5_k1 9.7141134080205074e+00
ni_s1_w0_t5_k2 0
ni_s1_w0_t5_k3 4.3468936568382446e+01
ni_s1_w0_t5_k4 8.3698231262230294e+01
ni_s1_w0_t5_k5 0
ni_s1_w0_t5_k6 0
ni_s1_w0_t5_k7 0
ni_s1_w0_t5_k8 0
ni_s1_w0_t5_k9 0
ni_s1_w0_t6_k0 0
ni_s1_w0_t6_k1 0
ni_s1_w0_t6_k2 0
ni_s1_w0_t6_k3 0
ni_s1_w0_t6_k4 0
ni_s1_w0_t6_k5 0
ni_s1_w0_t6_k6 0
ni_s1_w0_t6_k7 0
ni_s1_w0_t6_k8 8.3441473379087938e+00
ni_s1_w0_t6_k9 0
ni_s1_w1_t0_k0 0
ni_s1_w1_t0_k1 0
ni_s1_w1_t0_k2 0
ni_s1_w1_t0_k3 0
ni_s1_w1_t0_k4 0
ni_s1_w1_t0_k5 0
ni_s1_w1_t0_k6 0
ni_s1_w1_t0_k7 0
ni_s1_w1_t0_k8 0
ni_s1_w1_t0_k9 0
ni_s1_w1_t1_k0 0
ni_s1_w1_t1_k1 0
ni_s1_w1_t1_k2 0
ni_s1_w1_t1_k3 0
ni_s1_w1_t1_k4 0
ni_s1_w1_t1_k5 0
ni_s1_w1_t1_k6 0
ni_s1_w1_t1_k7 0
ni_s1_w1_t1_k8 0
ni_s1_w1_t1_k9 0
ni_s1_w1_t2_k0 0
ni_s1_w1_t2_k1 0
ni_s1_w1_t2_k2 0
ni_s1_w1_t2_k3 0
ni_s1_w1_t2_k4 0
ni_s1_w1_t2_k5 172
ni_s1_w1_t2_k6 27
ni_s1_w1_t2_k7 0
ni_s1_w1_t2_k8 0
ni_s1_w1_t2_k9 0
ni_s1_w1_t3_k0 0
ni_s1_w1_t3_k1 0
ni_s1_w1_t3_k2 0
ni_s1_w1_t3_k3 0
ni_s1_w1_t3_k4 0
ni_s1_w1_t3_k5 0
ni_s1_w1_t3_k6 0
ni_s1_w1_t3_k7 0
ni_s1_w1_t3_k8 0
ni_s1_w1_t3_k9 0
ni_s1_w1_t4_k0 0
ni_s1_w1_t4_k1 0
ni_s1_w1_t4_k2 0
ni_s1_w1_t4_k3 0
ni_s1_w1_t4_k4 0
ni_s1_w1_t4_k5 0
ni_s1_w1_t4_k6 0
ni_s1_w1_t4_k7 0
ni_s1_w1_t4_k8 0
ni_s1_w1_t4_k9 0
ni_s1_w1_t5_k0 0
ni_s1_w1_t5_k1 0
ni_s1_w1_t5_k2 0
ni_s1_w1_t5_k3 0
ni_s1_w1_t5_k4 0
ni_s1_w1_t5_k5 0
ni_s1_w1_t5_k6 0
ni_s1_w1_t5_k7 0
ni_s1_w1_t5_k8 0
ni_s1_w1_t5_k9 0
ni_s1_w1_t6_k0 0
ni_s1_w1_t6_k1 0
ni_s1_w1_t6_k2 0
ni_s1_w1_t6_k3 0
ni_s1_w1_t6_k4 0
ni_s1_w1_t6_k5 0
ni_s1_w1_t6_k6 0
ni_s1_w1_t6_k7 13
ni_s1_w1_t6_k8 0
ni_s1_w1_t6_k9 0
ni_s1_w2_t0_k0 0
ni_s1_w2_t0_k1 0
ni_s1_w2_t0_k2 0
ni_s1_w2_t0_k3 0
ni_s1_w2_t0_k4 0
ni_s1_w2_t0_k5 0
ni_s1_w2_t0_k6 0
ni_s1_w2_t0_k7 0
ni_s1_w2_t0_k8 0
ni_s1_w2_t0_k9 0
ni_s1_w2_t1_k0 0
ni_s1_w2_t1_k1 0
ni_s1_w2_t1_k2 1.1468724115476476e+00
ni_s1_w2_t1_k3 0
ni_s1_w2_t1_k4 0
ni_s1_w2_t1_k5 0
ni_s1_w2_t1_k6 0
ni_s1_w2_t1_k7 0
ni_s1_w2_t1_k8 0
ni_s1_w2_t1_k9 1.0619927369662991e+01
ni_s1_w2_t2_k0 0
ni_s1_w2_t2_k1 0
ni_s1_w2_t2_k2 0
ni_s1_w2_t2_k3 0
ni_s1_w2_t2_k4 0
ni_s1_w2_t2_k5 0
ni_s1_w2_t2_k6 0
ni_s1_w2_t2_k7 0
ni_s1_w2_t2_k8 0
ni_s1_w2_t2_k9 0
ni_s1_w2_t3_k0 0
ni_s1_w2_t3_k1 0
ni_s1_w2_t3_k2 0
ni_s1_w2_t3_k3 0
ni_s1_w2_t3_k4 0
ni_s1_w2_t3_k5 0
ni_s1_w2_t3_k6 0
ni_s1_w2_t3_k7 0
ni_s1_w2_t3_k8 0
ni_s1_w2_t3_k9 0
ni_s1_w2_t4_k0 0
ni_s1_w2_t4_k1 0
ni_s1_w2_t4_k2 0
ni_s1_w2_t4_k3 0
ni_s1_w2_t4_k4 0
ni_s1_w2_t4_k5 0
ni_s1_w2_t4_k6 0
ni_s1_w2_t4_k7 0
ni_s1_w2_t4_k8 0
ni_s1_w2_t4_k9 0
ni_s1_w2_t5_k0 0
ni_s1_w2_t5_k1 0
ni_s1_w2_t5_k2 0
ni_s1_w2_t5_k3 0
ni_s1_w2_t5_k4 0
ni_s1_w2_t5_k5 0
ni_s1_w2_t5_k6 0
ni_s1_w2_t5_k7 0
ni_s1_w2_t5_k8 0
ni_s1_w2_t5_k9 0
ni_s1_w2_t6_k0 0
ni_s1_w2_t6_k1 0
ni_s1_w2_t6_k2 9.8531275884523524e+00
ni_s1_w2_t6_k3 0
ni_s1_w2_t6_k4 0
ni_s1_w2_t6_k5 0
ni_s1_w2_t6_k6 0
ni_s1_w2_t6_k7 0
ni_s1_w2_t6_k8 0
ni_s1_w2_t6_k9 6.3800726303370094e+00
o_w0_r0 0
o_w0_r1 3.8845503736671439e+01
o_w0_r2 0
o_w1_r0 0
o_w1_r1 1.1179789537747266e+02
o_w1_r2 0
o_w2_r0 0
o_w2_r1 1.0418129526807795e+02
o_w2_r2 0
oi_w0_r0_s0 0
oi_w0_r0_s1 3.2296118101353130e+01
oi_w0_r0_s2 0
oi_w0_r1_s0 0
oi_w0_r1_s1 1.7820090138295555e+02
oi_w0_r1_s2 0
oi_w0_r2_s0 0
oi_w0_r2_s1 1.7020090138295552e+02
oi_w0_r2_s2 0
oi_w1_r0_s0 0
oi_w1_r0_s1 4.5394889371989748e+01
oi_w1_r0_s2 0
oi_w1_r1_s0 0
oi_w1_r1_s1 4.5394889371989748e+01
oi_w1_r1_s2 0
oi_w1_r2_s0 0
oi_w1_r2_s1 3.8161689153200385e+01
oi_w1_r2_s2 0
y_w0_r0 0.5
y_w0_r1 5.5
y_w0_r2 1
y_w1_r0 0
y_w1_r1 4.9999999999999933e-01
y_w1_r2 4.9999999999999933e-01
y_w2_r0 0
y_w2_r1 1.0000000000000007e+00
y_w2_r2 0
yi_w0_r0_s0 1
yi_w0_r0_s1 5
yi_w0_r0_s2 1
yi_w0_r1_s0 0
yi_w0_r1_s1 9.9999999999999867e-01
yi_w0_r1_s2 0
yi_w0_r2_s0 0
yi_w0_r2_s1 1.0000000000000013e+00
yi_w0_r2_s2 0
yi_w1_r0_s0 0
yi_w1_r0_s1 6
yi_w1_r0_s2 1
yi_w1_r1_s0 0
yi_w1_r1_s1 0
yi_w1_r1_s2 9.9999999999999867e-01
yi_w1_r2_s0 0
yi_w1_r2_s1 1
yi_w1_r2_s2 0
yb_w0_r0_s0 1
yb_w0_r0_s1 0
yb_w0_r0_s2 1
yb_w0_r1_s0 0
yb_w0_r1_s1 1
yb_w0_r1_s2 0
yb_w0_r2_s0 0
yb_w0_r2_s1 1
yb_w0_r2_s2 0
yb_w1_r0_s0 0
yb_w1_r0_s1 1
yb_w1_r0_s2 1
yb_w1_r1_s0 0
yb_w1_r1_s1 0
yb_w1_r1_s2 1
yb_w1_r2_s0 0
yb_w1_r2_s1 1
yb_w1_r2_s2 0
yb_w20_r0_s0 0
yb_w20_r0_s1 0
yb_w20_r0_s2 0
yb_w20_r1_s0 0
yb_w20_r1_s1 0
yb_w20_r1_s2 0
yb_w20_r2_s0 0
yb_w20_r2_s1 0
yb_w20_r2_s2 0
yb_w21_r0_s0 0
yb_w21_r0_s1 0
yb_w21_r0_s2 0
yb_w21_r1_s0 0
yb_w21_r1_s1 0
yb_w21_r1_s2 0
yb_w21_r2_s0 0
yb_w21_r2_s1 0
yb_w21_r2_s2 0
p_w0 8
s_w0 8
p_w1 9.9999999999999867e-01
s_w1 9.9999999999999867e-01
p_w2 1.0000000000000013e+00
s_w2 1.0000000000000013e+00
